67
21
0 21 24 25 28 35 38 42 47 51 52 54 55 56 57 58 59 63 64 65 66
1 25 26 28 29 30 33 35 37 38 40 42 44 46 51 54 55 56 57 58 60 62 63 64 65 66
2 21 26 28 30 32 33 34 35 37 40 44 46 47 48 51 55 56 57 58 61 62 63 64 66
3 22 25 26 28 30 32 35 37 38 42 46 51 52 55 56 57 58 59 63 64 65 66
4 21 25 26 28 32 33 37 39 41 52 54 56 57 58 59 60 66
5 22 23 26 29 32 33 35 37 38 39 42 46 47 51 54 55 56 57 64 65
6 22 23 25 26 28 29 30 32 33 35 36 37 38 42 43 44 46 47 49 51 54 55 57 59 60 62 63 65 66
7 22 25 26 29 30 32 33 35 36 37 40 44 47 49 53 54 55 56 57 58 59 63 64
8 25 26 30 33 34 36 37 42 43 46 47 60 62 65 66
9 25 28 30 31 32 33 34 36 37 38 42 44 46 47 48 49 51 54 55 57 59 60 61 62 63 65
10 21 22 29 31 32 33 34 36 39 43 46 47 49 50 55 56 58 59 60
11 26 27 28 36 38 46 47 54 57 58 60 62 63 66
12 21 23 25 26 29 31 35 42 45 49 58 65
13 25 26 30 33 35 37 40 50 52 54 56 59 62 64 65
14 25 28 29 30 35 44 45 52 54 57 58 63 65
15 26 30 36 37 42 43 44 45 46 51 52 55 60 64
16 26 33 36 45 59 60 66
17 24 44 46 64
18 35 45 47 50 62
19 24 33 37 64
20 32 36 52
